1377.93
0 69 60 20 54 59 11 19 35 8 34 0
0 65 10 58 39 25 32 3 2 74 52 0
0 12 72 9 56 62 28 30 68 17 0
0 51 63 42 23 24 31 53 13 5 4 0
0 38 66 14 46 45 6 26 0
0 18 55 44 15 37 70 71 36 21 61 22 73 75 0
0 1 64 48 47 27 67 40 0
0 29 57 41 43 16 33 49 50 7 0
